
===== New CPLEX run =====
Instance: /home/yorig/tuner/mpils-tests/instances/miplib/easy/mas74.mps
Config: /scratch/yorig/mpils-results-grid-ticks-10000-divide/easy/16proc/seed-4/5_mas74_seed-4_20260429_043455/expansion/config_param_CPXPARAM_MIP_Strategy_Branch_1_iter_1.prm
========================

Selected objective sense:  MINIMIZE
Selected objective  name:  obj
Selected RHS        name:  rhs
Selected bound      name:  bnd
Version identifier: 22.1.2.0 | 2024-11-26 | 0edbb82fd
CPXPARAM_Threads                                 8
CPXPARAM_Parallel                                1
CPXPARAM_MIP_Strategy_Branch                     1
CPXPARAM_MIP_Cuts_Cliques                        1
CPXPARAM_MIP_Cuts_FlowCovers                     1
CPXPARAM_MIP_Cuts_Implied                        -1
CPXPARAM_MIP_Cuts_GUBCovers                      -1
CPXPARAM_MIP_Limits_GomoryCand                   10
CPXPARAM_MIP_Cuts_Gomory                         2
CPXPARAM_MIP_Cuts_PathCut                        2
CPXPARAM_MIP_Cuts_MIRCut                         -1
CPXPARAM_MIP_Cuts_Disjunctive                    2
CPXPARAM_Emphasis_MIP                            3
CPXPARAM_DetTimeLimit                            10000
Found incumbent of value 157344.610330 after 0.00 sec. (0.02 ticks)
Tried aggregator 1 time.
MIP Presolve eliminated 0 rows and 3 columns.
Reduced MIP has 13 rows, 148 columns, and 1682 nonzeros.
Reduced MIP has 145 binaries, 2 generals, 0 SOSs, and 0 indicators.
Presolve time = 0.00 sec. (0.84 ticks)
Probing time = 0.00 sec. (0.09 ticks)
Tried aggregator 1 time.
Detecting symmetries...
Reduced MIP has 13 rows, 148 columns, and 1682 nonzeros.
Reduced MIP has 145 binaries, 2 generals, 0 SOSs, and 0 indicators.
Presolve time = 0.00 sec. (0.79 ticks)
Probing time = 0.00 sec. (0.09 ticks)
MIP emphasis: best bound.
MIP search method: dynamic search.
Parallel mode: deterministic, using up to 8 threads.
Root relaxation solution time = 0.04 sec. (0.72 ticks)

        Nodes                                         Cuts/
   Node  Left     Objective  IInf  Best Integer    Best Bound    ItCnt     Gap

*     0+    0                       157344.6103        0.0000           100.00%
*     0+    0                        51840.4943        0.0000           100.00%
      0     0    10482.7953    12    51840.4943    10482.7953       43   79.78%
*     0+    0                        19197.4680    10482.7953            45.39%
      0     0    10526.7004    13    19197.4680      Fract: 1       51   45.17%
*     0+    0                        14901.6028    10526.7004            29.36%
      0     0    10549.2365    14    14901.6028      Fract: 1       59   29.21%
*     0+    0                        14692.2744    10549.2365            28.20%
      0     0    10553.2582    15    14692.2744      Fract: 1       65   28.17%
      0     0    10557.5476    16    14692.2744      Fract: 1       71   28.14%
      0     0    10560.8992    16    14692.2744      Fract: 1       79   28.12%
Detecting symmetries...
      0     0    10564.8486    16    14692.2744   LiftProj: 1       87   28.09%
*     0+    0                        13886.0272    10564.8486            23.92%
      0     0    10567.6171    17    13886.0272   LiftProj: 1       92   23.90%
      0     0    10568.6950    18    13886.0272   LiftProj: 1       97   23.89%
      0     0    10569.2729    19    13886.0272   LiftProj: 1      100   23.89%
      0     0    10569.3085    20    13886.0272   LiftProj: 1      102   23.89%
*     0+    0                        12915.1000    10569.3085            18.16%
*     0+    0                        12715.8924    10587.6058            16.74%
      0     0  -1.00000e+75     0    12715.8924    10587.6058      102   16.74%
Detecting symmetries...
      0     2    10569.3085    20    12715.8924    10587.6058      102   16.74%
Elapsed time = 0.81 sec. (55.02 ticks, tree = 0.02 MB, solutions = 8)
*    40+    3                        12640.3713    10587.6058            16.24%

Performing restart 1

Repeating presolve.
Tried aggregator 1 time.
MIP Presolve eliminated 0 rows and 30 columns.
Reduced MIP has 13 rows, 118 columns, and 1295 nonzeros.
Reduced MIP has 116 binaries, 1 generals, 0 SOSs, and 0 indicators.
Presolve time = 0.00 sec. (0.46 ticks)
Tried aggregator 1 time.
Reduced MIP has 13 rows, 118 columns, and 1295 nonzeros.
Reduced MIP has 116 binaries, 1 generals, 0 SOSs, and 0 indicators.
Presolve time = 0.00 sec. (0.60 ticks)
Represolve time = 0.00 sec. (2.71 ticks)
   2139     0    10571.2621    22    12640.3713   LiftProj: 1    12728   15.02%
*  4111+ 1611                        12609.9486    10813.6207            14.25%
*  4314+ 1469                        12432.9284    10815.3378            13.01%
   5001  2580    11655.4127    11    12432.9284    10836.9940    30873   12.84%
*  5158+ 2531                        12039.4680    10844.3379             9.93%
  13327  9780    11074.8585    12    12039.4680    10958.5859    81917    8.98%
* 19205+15495                        11801.1857    11012.3374             6.68%
  22290 18705    11096.9109    12    11801.1857    11037.6289   147567    6.47%
  32296 27758    11134.9017    11    11801.1857    11091.7772   211609    6.01%
  38892 34632    11234.6888    12    11801.1857    11111.2641   260955    5.85%
  43998 38904    11184.0171    12    11801.1857    11111.2641   291350    5.85%
  49004 42902    11296.9608    11    11801.1857    11111.2641   320061    5.85%
  54065 47664        cutoff          11801.1857    11111.2641   355446    5.85%
  59585 52079    11240.6721    12    11801.1857    11111.2641   387361    5.85%

Performing restart 2

Repeating presolve.
Tried aggregator 1 time.
MIP Presolve eliminated 0 rows and 22 columns.
Reduced MIP has 13 rows, 96 columns, and 1017 nonzeros.
Reduced MIP has 94 binaries, 1 generals, 0 SOSs, and 0 indicators.
Presolve time = 0.00 sec. (0.35 ticks)
Tried aggregator 1 time.
Reduced MIP has 13 rows, 96 columns, and 1017 nonzeros.
Reduced MIP has 94 binaries, 1 generals, 0 SOSs, and 0 indicators.
Presolve time = 0.00 sec. (0.45 ticks)
Represolve time = 0.02 sec. (3.96 ticks)
  90970 19504    11144.8325    10    11801.1857    11196.2975   591159    5.13%
Elapsed time = 13.28 sec. (3154.73 ticks, tree = 4.68 MB, solutions = 14)
 130316 53978    11459.2563    11    11801.1857    11208.2767   839016    5.02%
 171154 88863        cutoff          11801.1857    11277.5161  1094083    4.44%
 212466 122190    11358.3005    10    11801.1857    11324.8111  1348074    4.04%
 254129 154584        cutoff          11801.1857    11361.0212  1600215    3.73%
 296654 185505    11602.3502    10    11801.1857    11390.9911  1850833    3.48%
 339077 215807    11475.8222    12    11801.1857    11416.2689  2104455    3.26%
 381845 243399    11475.1038    11    11801.1857    11438.0427  2343064    3.08%

Clique cuts applied:  0
Cover cuts applied:  74
Flow cuts applied:  0
Flow path cuts applied:  0
Lift and project cuts applied:  8
Gomory fractional cuts applied:  3
Disjunctive cuts applied:  0
Cone linearizations applied:  0

Root node processing (before b&c):
  Real time             =    0.69 sec. (54.96 ticks)
Parallel b&c, 8 threads:
  Real time             =   36.08 sec. (9945.39 ticks)
  Sync time (average)   =   16.79 sec.
  Wait time (average)   =    0.19 sec.
                          ------------
Total (root+branch&cut) =   36.77 sec. (10000.35 ticks)
Gap: 3.03%
Upper bound: 11801.2
Lower bound: 11443
End of CPLEX run. Time: 36.7959 seconds
